5 6 56
4 2 1 3 2 3 3 3 4 18 28 28 39 39 48 48 55 
4 4 1 4 2 4 3 4 4 26 33 33 39 39 48 48 54 
6 5 1 5 2 5 3 5 4 5 5 1 3 8 16 16 24 24 34 34 42 42 50 50 56 
5 3 1 1 1 1 2 2 2 2 3 6 16 16 27 27 36 36 47 47 55 
7 3 1 1 1 1 1 4 1 4 1 1 3 1 3 0 6 6 10 10 16 16 20 20 26 32 36 36 48 
6 5 1 2 1 2 1 3 2 3 2 2 2 0 8 8 14 14 18 18 20 20 28 28 30 
